
Gurobi 7.5.2 (linux64, Python) logging started Tue Dec 12 21:07:26 2017

Academic license - for non-commercial use only
Optimize a model with 2 rows, 3 columns and 5 nonzeros
Variable types: 0 continuous, 3 integer (3 binary)
Coefficient statistics:
  Matrix range     [1e+00, 3e+00]
  Objective range  [1e+00, 2e+00]
  Bounds range     [1e+00, 1e+00]
  RHS range        [1e+00, 4e+00]
Found heuristic solution: objective 2.0000000
Presolve removed 2 rows and 3 columns
Presolve time: 0.00s
Presolve: All rows and columns removed

Explored 0 nodes (0 simplex iterations) in 0.00 seconds
Thread count was 1 (of 4 available processors)

Solution count 2: 3 2 

Optimal solution found (tolerance 1.00e-04)
Best objective 3.000000000000e+00, best bound 3.000000000000e+00, gap 0.0000%

Gurobi 7.5.2 (linux64, Python) logging started Wed Feb 21 21:00:39 2018

Academic license - for non-commercial use only

Gurobi 7.5.2 (linux64, Python) logging started Wed Feb 21 21:01:13 2018

Academic license - for non-commercial use only

Gurobi 7.5.2 (linux64, Python) logging started Wed Feb 21 21:03:32 2018

Academic license - for non-commercial use only
Optimize a model with 304 rows, 178 columns and 1004 nonzeros
Coefficient statistics:
  Matrix range     [5e-01, 1e+00]
  Objective range  [1e-01, 3e-01]
  Bounds range     [0e+00, 0e+00]
  RHS range        [1e+01, 5e+01]
Presolve removed 274 rows and 140 columns
Presolve time: 0.04s
Presolved: 30 rows, 38 columns, 73 nonzeros

Iteration    Objective       Primal Inf.    Dual Inf.      Time
       0    0.0000000e+00   3.500000e+02   0.000000e+00      0s
      43    1.0500000e+02   0.000000e+00   0.000000e+00      0s

Solved in 43 iterations and 0.07 seconds
Optimal objective  1.050000000e+02

Gurobi 7.5.2 (linux64, Python) logging started Wed Feb 21 21:18:30 2018

Academic license - for non-commercial use only
Optimize a model with 304 rows, 178 columns and 1004 nonzeros
Coefficient statistics:
  Matrix range     [5e-01, 1e+00]
  Objective range  [1e-01, 3e-01]
  Bounds range     [0e+00, 0e+00]
  RHS range        [1e+01, 5e+01]
Presolve removed 274 rows and 140 columns
Presolve time: 0.00s
Presolved: 30 rows, 38 columns, 73 nonzeros

Iteration    Objective       Primal Inf.    Dual Inf.      Time
       0    0.0000000e+00   3.500000e+02   0.000000e+00      0s
      43    1.0500000e+02   0.000000e+00   0.000000e+00      0s

Solved in 43 iterations and 0.00 seconds
Optimal objective  1.050000000e+02

Gurobi 7.5.2 (linux64, Python) logging started Wed Feb 21 21:19:16 2018

Academic license - for non-commercial use only
Optimize a model with 304 rows, 178 columns and 1004 nonzeros
Coefficient statistics:
  Matrix range     [5e-01, 1e+00]
  Objective range  [1e-01, 3e-01]
  Bounds range     [0e+00, 0e+00]
  RHS range        [1e+01, 5e+01]
Presolve removed 274 rows and 140 columns
Presolve time: 0.00s
Presolved: 30 rows, 38 columns, 73 nonzeros

Iteration    Objective       Primal Inf.    Dual Inf.      Time
       0    0.0000000e+00   3.500000e+02   0.000000e+00      0s
      43    1.0500000e+02   0.000000e+00   0.000000e+00      0s

Solved in 43 iterations and 0.00 seconds
Optimal objective  1.050000000e+02

Gurobi 7.5.2 (linux64, Python) logging started Wed Feb 21 21:21:13 2018

Academic license - for non-commercial use only
Optimize a model with 304 rows, 178 columns and 1004 nonzeros
Coefficient statistics:
  Matrix range     [5e-01, 1e+00]
  Objective range  [1e-01, 3e-01]
  Bounds range     [0e+00, 0e+00]
  RHS range        [1e+01, 5e+01]
Presolve removed 274 rows and 140 columns
Presolve time: 0.00s
Presolved: 30 rows, 38 columns, 73 nonzeros

Iteration    Objective       Primal Inf.    Dual Inf.      Time
       0    0.0000000e+00   3.500000e+02   0.000000e+00      0s
      43    1.0500000e+02   0.000000e+00   0.000000e+00      0s

Solved in 43 iterations and 0.00 seconds
Optimal objective  1.050000000e+02

Gurobi 7.5.2 (linux64, Python) logging started Thu Feb 22 15:27:50 2018

Academic license - for non-commercial use only
Optimize a model with 304 rows, 178 columns and 1004 nonzeros
Coefficient statistics:
  Matrix range     [5e-01, 1e+00]
  Objective range  [1e-01, 3e-01]
  Bounds range     [0e+00, 0e+00]
  RHS range        [1e+01, 5e+01]
Presolve removed 274 rows and 140 columns
Presolve time: 0.01s
Presolved: 30 rows, 38 columns, 73 nonzeros

Iteration    Objective       Primal Inf.    Dual Inf.      Time
       0    0.0000000e+00   3.500000e+02   0.000000e+00      0s
      43    1.0500000e+02   0.000000e+00   0.000000e+00      0s

Solved in 43 iterations and 0.04 seconds
Optimal objective  1.050000000e+02

Gurobi 7.5.2 (linux64, Python) logging started Thu Feb 22 15:29:15 2018

Academic license - for non-commercial use only
Optimize a model with 304 rows, 178 columns and 1004 nonzeros
Coefficient statistics:
  Matrix range     [5e-01, 1e+00]
  Objective range  [1e-01, 5e-01]
  Bounds range     [0e+00, 0e+00]
  RHS range        [1e+01, 5e+01]
Presolve removed 274 rows and 140 columns
Presolve time: 0.00s
Presolved: 30 rows, 38 columns, 73 nonzeros

Iteration    Objective       Primal Inf.    Dual Inf.      Time
       0    0.0000000e+00   3.500000e+02   0.000000e+00      0s
      30    3.5000000e+01   0.000000e+00   0.000000e+00      0s

Solved in 30 iterations and 0.00 seconds
Optimal objective  3.500000000e+01

Gurobi 7.5.2 (linux64, Python) logging started Mon Feb 26 20:25:41 2018

Academic license - for non-commercial use only
Optimize a model with 304 rows, 178 columns and 1004 nonzeros
Coefficient statistics:
  Matrix range     [5e-01, 1e+00]
  Objective range  [1e-01, 6e-01]
  Bounds range     [0e+00, 0e+00]
  RHS range        [1e+01, 5e+01]
Presolve removed 274 rows and 147 columns
Presolve time: 0.02s
Presolved: 30 rows, 31 columns, 66 nonzeros

Iteration    Objective       Primal Inf.    Dual Inf.      Time
       0    0.0000000e+00   0.000000e+00   0.000000e+00      0s
       0    0.0000000e+00   0.000000e+00   0.000000e+00      0s

Solved in 0 iterations and 0.05 seconds
Optimal objective  0.000000000e+00

Gurobi 7.5.2 (linux64, Python) logging started Mon Feb 26 20:30:03 2018

Academic license - for non-commercial use only
Optimize a model with 304 rows, 178 columns and 1004 nonzeros
Coefficient statistics:
  Matrix range     [5e-01, 1e+00]
  Objective range  [1e-01, 4e-01]
  Bounds range     [0e+00, 0e+00]
  RHS range        [1e+01, 5e+01]
Presolve removed 277 rows and 143 columns
Presolve time: 0.00s
Presolved: 27 rows, 35 columns, 63 nonzeros

Iteration    Objective       Primal Inf.    Dual Inf.      Time
       0    0.0000000e+00   3.500000e+02   0.000000e+00      0s
      25    5.9352941e+01   0.000000e+00   0.000000e+00      0s

Solved in 25 iterations and 0.00 seconds
Optimal objective  5.935294118e+01

Gurobi 7.5.2 (linux64, Python) logging started Mon Feb 26 20:41:22 2018

Academic license - for non-commercial use only
Optimize a model with 304 rows, 178 columns and 1004 nonzeros
Coefficient statistics:
  Matrix range     [5e-01, 1e+00]
  Objective range  [1e-01, 4e-01]
  Bounds range     [0e+00, 0e+00]
  RHS range        [1e+01, 5e+01]
Presolve removed 274 rows and 140 columns
Presolve time: 0.00s
Presolved: 30 rows, 38 columns, 73 nonzeros

Iteration    Objective       Primal Inf.    Dual Inf.      Time
       0    0.0000000e+00   3.500000e+02   0.000000e+00      0s
      47    1.4000000e+02   0.000000e+00   0.000000e+00      0s

Solved in 47 iterations and 0.00 seconds
Optimal objective  1.400000000e+02

Gurobi 7.5.2 (linux64, Python) logging started Wed Feb 28 08:59:59 2018

Academic license - for non-commercial use only
Optimize a model with 304 rows, 178 columns and 1004 nonzeros
Coefficient statistics:
  Matrix range     [5e-01, 1e+00]
  Objective range  [1e-01, 4e-01]
  Bounds range     [0e+00, 0e+00]
  RHS range        [1e+01, 5e+01]
Presolve removed 274 rows and 140 columns
Presolve time: 0.02s
Presolved: 30 rows, 38 columns, 73 nonzeros

Iteration    Objective       Primal Inf.    Dual Inf.      Time
       0    0.0000000e+00   3.500000e+02   0.000000e+00      0s
      47    1.4000000e+02   0.000000e+00   0.000000e+00      0s

Solved in 47 iterations and 0.04 seconds
Optimal objective  1.400000000e+02

Gurobi 7.5.2 (linux64, Python) logging started Wed Feb 28 09:06:20 2018

Academic license - for non-commercial use only
Optimize a model with 304 rows, 178 columns and 1004 nonzeros
Coefficient statistics:
  Matrix range     [5e-01, 1e+00]
  Objective range  [1e-01, 4e-01]
  Bounds range     [0e+00, 0e+00]
  RHS range        [1e+01, 5e+01]
Presolve removed 274 rows and 140 columns
Presolve time: 0.00s
Presolved: 30 rows, 38 columns, 73 nonzeros

Iteration    Objective       Primal Inf.    Dual Inf.      Time
       0    0.0000000e+00   3.500000e+02   0.000000e+00      0s
      47    1.4000000e+02   0.000000e+00   0.000000e+00      0s

Solved in 47 iterations and 0.00 seconds
Optimal objective  1.400000000e+02

Gurobi 7.5.2 (linux64, Python) logging started Wed Feb 28 09:06:54 2018

Academic license - for non-commercial use only
Optimize a model with 304 rows, 178 columns and 1004 nonzeros
Coefficient statistics:
  Matrix range     [5e-01, 1e+00]
  Objective range  [1e-01, 4e-01]
  Bounds range     [0e+00, 0e+00]
  RHS range        [1e+01, 5e+01]
Presolve removed 274 rows and 140 columns
Presolve time: 0.00s
Presolved: 30 rows, 38 columns, 73 nonzeros

Iteration    Objective       Primal Inf.    Dual Inf.      Time
       0    0.0000000e+00   3.500000e+02   0.000000e+00      0s
      47    1.4000000e+02   0.000000e+00   0.000000e+00      0s

Solved in 47 iterations and 0.00 seconds
Optimal objective  1.400000000e+02

Gurobi 7.5.2 (linux64, Python) logging started Wed Feb 28 09:11:00 2018

Academic license - for non-commercial use only
Optimize a model with 304 rows, 178 columns and 1004 nonzeros
Coefficient statistics:
  Matrix range     [5e-01, 1e+00]
  Objective range  [1e-01, 4e-01]
  Bounds range     [0e+00, 0e+00]
  RHS range        [1e+01, 5e+01]
Presolve removed 274 rows and 140 columns
Presolve time: 0.00s
Presolved: 30 rows, 38 columns, 73 nonzeros

Iteration    Objective       Primal Inf.    Dual Inf.      Time
       0    0.0000000e+00   3.500000e+02   0.000000e+00      0s
      47    1.4000000e+02   0.000000e+00   0.000000e+00      0s

Solved in 47 iterations and 0.00 seconds
Optimal objective  1.400000000e+02

Gurobi 7.5.2 (linux64, Python) logging started Wed Feb 28 09:40:57 2018

Academic license - for non-commercial use only
Optimize a model with 304 rows, 178 columns and 1004 nonzeros
Coefficient statistics:
  Matrix range     [5e-01, 1e+00]
  Objective range  [1e-01, 4e-01]
  Bounds range     [0e+00, 0e+00]
  RHS range        [1e+01, 5e+01]
Presolve removed 274 rows and 140 columns
Presolve time: 0.00s
Presolved: 30 rows, 38 columns, 73 nonzeros

Iteration    Objective       Primal Inf.    Dual Inf.      Time
       0    0.0000000e+00   3.500000e+02   0.000000e+00      0s
      47    1.4000000e+02   0.000000e+00   0.000000e+00      0s

Solved in 47 iterations and 0.00 seconds
Optimal objective  1.400000000e+02

Gurobi 7.5.2 (linux64, Python) logging started Wed Feb 28 09:41:31 2018

Academic license - for non-commercial use only
Optimize a model with 304 rows, 178 columns and 1004 nonzeros
Coefficient statistics:
  Matrix range     [5e-01, 1e+00]
  Objective range  [1e-01, 4e-01]
  Bounds range     [0e+00, 0e+00]
  RHS range        [1e+01, 5e+01]
Presolve removed 274 rows and 140 columns
Presolve time: 0.00s
Presolved: 30 rows, 38 columns, 73 nonzeros

Iteration    Objective       Primal Inf.    Dual Inf.      Time
       0    0.0000000e+00   3.500000e+02   0.000000e+00      0s
      47    1.4000000e+02   0.000000e+00   0.000000e+00      0s

Solved in 47 iterations and 0.00 seconds
Optimal objective  1.400000000e+02

Gurobi 7.5.2 (linux64, Python) logging started Wed Feb 28 09:42:16 2018

Academic license - for non-commercial use only
Optimize a model with 304 rows, 178 columns and 1004 nonzeros
Coefficient statistics:
  Matrix range     [5e-01, 1e+00]
  Objective range  [1e-01, 4e-01]
  Bounds range     [0e+00, 0e+00]
  RHS range        [1e+01, 5e+01]
Presolve removed 274 rows and 140 columns
Presolve time: 0.00s
Presolved: 30 rows, 38 columns, 73 nonzeros

Iteration    Objective       Primal Inf.    Dual Inf.      Time
       0    0.0000000e+00   3.500000e+02   0.000000e+00      0s
      47    1.4000000e+02   0.000000e+00   0.000000e+00      0s

Solved in 47 iterations and 0.00 seconds
Optimal objective  1.400000000e+02

Gurobi 7.5.2 (linux64, Python) logging started Wed Feb 28 09:46:22 2018

Academic license - for non-commercial use only
Optimize a model with 304 rows, 178 columns and 1004 nonzeros
Coefficient statistics:
  Matrix range     [5e-01, 1e+00]
  Objective range  [1e-01, 4e-01]
  Bounds range     [0e+00, 0e+00]
  RHS range        [1e+01, 5e+01]
Presolve removed 274 rows and 140 columns
Presolve time: 0.00s
Presolved: 30 rows, 38 columns, 73 nonzeros

Iteration    Objective       Primal Inf.    Dual Inf.      Time
       0    0.0000000e+00   3.500000e+02   0.000000e+00      0s
      47    1.4000000e+02   0.000000e+00   0.000000e+00      0s

Solved in 47 iterations and 0.00 seconds
Optimal objective  1.400000000e+02

Gurobi 7.5.2 (linux64, Python) logging started Wed Feb 28 09:48:15 2018

Academic license - for non-commercial use only
Optimize a model with 304 rows, 178 columns and 1004 nonzeros
Coefficient statistics:
  Matrix range     [5e-01, 1e+00]
  Objective range  [1e-01, 4e-01]
  Bounds range     [0e+00, 0e+00]
  RHS range        [1e+01, 5e+01]
Presolve removed 274 rows and 140 columns
Presolve time: 0.00s
Presolved: 30 rows, 38 columns, 73 nonzeros

Iteration    Objective       Primal Inf.    Dual Inf.      Time
       0    0.0000000e+00   3.500000e+02   0.000000e+00      0s
      47    1.4000000e+02   0.000000e+00   0.000000e+00      0s

Solved in 47 iterations and 0.00 seconds
Optimal objective  1.400000000e+02

Gurobi 7.5.2 (linux64, Python) logging started Wed Feb 28 10:37:39 2018

Academic license - for non-commercial use only
Optimize a model with 304 rows, 178 columns and 1004 nonzeros
Coefficient statistics:
  Matrix range     [5e-01, 1e+00]
  Objective range  [1e-01, 4e-01]
  Bounds range     [0e+00, 0e+00]
  RHS range        [1e+01, 5e+01]
Presolve removed 277 rows and 143 columns
Presolve time: 0.00s
Presolved: 27 rows, 35 columns, 63 nonzeros

Iteration    Objective       Primal Inf.    Dual Inf.      Time
       0    0.0000000e+00   3.500000e+02   0.000000e+00      0s
      25    5.9352941e+01   0.000000e+00   0.000000e+00      0s

Solved in 25 iterations and 0.00 seconds
Optimal objective  5.935294118e+01

Gurobi 7.5.2 (linux64, Python) logging started Wed Feb 28 10:46:22 2018

Academic license - for non-commercial use only

Gurobi 7.5.2 (linux64, Python) logging started Wed Feb 28 10:48:11 2018

Academic license - for non-commercial use only
Optimize a model with 29 rows, 178 columns and 454 nonzeros
Coefficient statistics:
  Matrix range     [5e-01, 1e+00]
  Objective range  [1e-01, 4e-01]
  Bounds range     [0e+00, 0e+00]
  RHS range        [1e+01, 5e+01]
Presolve removed 4 rows and 145 columns
Presolve time: 0.00s
Presolved: 25 rows, 33 columns, 57 nonzeros

Iteration    Objective       Primal Inf.    Dual Inf.      Time
       0    0.0000000e+00   3.500000e+02   0.000000e+00      0s
      24    5.9352941e+01   0.000000e+00   0.000000e+00      0s

Solved in 24 iterations and 0.00 seconds
Optimal objective  5.935294118e+01

Gurobi 7.5.2 (linux64, Python) logging started Wed Feb 28 10:48:41 2018

Academic license - for non-commercial use only
Optimize a model with 29 rows, 178 columns and 454 nonzeros
Coefficient statistics:
  Matrix range     [5e-01, 1e+00]
  Objective range  [1e-01, 4e-01]
  Bounds range     [0e+00, 0e+00]
  RHS range        [1e+01, 5e+01]
Presolve removed 4 rows and 144 columns
Presolve time: 0.00s
Presolved: 25 rows, 34 columns, 82 nonzeros

Iteration    Objective       Primal Inf.    Dual Inf.      Time
       0    0.0000000e+00   3.500000e+02   0.000000e+00      0s
      25    5.7882353e+01   0.000000e+00   0.000000e+00      0s

Solved in 25 iterations and 0.00 seconds
Optimal objective  5.788235294e+01

Gurobi 7.5.2 (linux64, Python) logging started Wed Feb 28 10:51:07 2018

Academic license - for non-commercial use only
Optimize a model with 29 rows, 178 columns and 454 nonzeros
Coefficient statistics:
  Matrix range     [5e-01, 1e+00]
  Objective range  [1e-01, 4e-01]
  Bounds range     [0e+00, 0e+00]
  RHS range        [1e+01, 5e+01]
Presolve removed 4 rows and 144 columns
Presolve time: 0.00s
Presolved: 25 rows, 34 columns, 82 nonzeros

Iteration    Objective       Primal Inf.    Dual Inf.      Time
       0    0.0000000e+00   3.500000e+02   0.000000e+00      0s
      25    5.7882353e+01   0.000000e+00   0.000000e+00      0s

Solved in 25 iterations and 0.00 seconds
Optimal objective  5.788235294e+01

Gurobi 7.5.2 (linux64, Python) logging started Wed Feb 28 10:51:38 2018

Academic license - for non-commercial use only
Optimize a model with 29 rows, 178 columns and 454 nonzeros
Coefficient statistics:
  Matrix range     [5e-01, 1e+00]
  Objective range  [1e-01, 4e-01]
  Bounds range     [0e+00, 0e+00]
  RHS range        [1e+01, 5e+01]
Presolve removed 4 rows and 144 columns
Presolve time: 0.00s
Presolved: 25 rows, 34 columns, 82 nonzeros

Iteration    Objective       Primal Inf.    Dual Inf.      Time
       0    0.0000000e+00   3.500000e+02   0.000000e+00      0s
      25    5.7882353e+01   0.000000e+00   0.000000e+00      0s

Solved in 25 iterations and 0.00 seconds
Optimal objective  5.788235294e+01

Gurobi 7.5.2 (linux64, Python) logging started Wed Feb 28 10:52:01 2018

Academic license - for non-commercial use only
Optimize a model with 29 rows, 178 columns and 454 nonzeros
Coefficient statistics:
  Matrix range     [5e-01, 1e+00]
  Objective range  [1e-01, 4e-01]
  Bounds range     [0e+00, 0e+00]
  RHS range        [1e+01, 5e+01]
Presolve removed 4 rows and 144 columns
Presolve time: 0.00s
Presolved: 25 rows, 34 columns, 82 nonzeros

Iteration    Objective       Primal Inf.    Dual Inf.      Time
       0    0.0000000e+00   3.500000e+02   0.000000e+00      0s
      25    5.7882353e+01   0.000000e+00   0.000000e+00      0s

Solved in 25 iterations and 0.00 seconds
Optimal objective  5.788235294e+01

Gurobi 7.5.2 (linux64, Python) logging started Fri Mar  9 14:55:59 2018

Optimize a model with 2 rows, 3 columns and 5 nonzeros
Variable types: 0 continuous, 3 integer (3 binary)
Coefficient statistics:
  Matrix range     [1e+00, 3e+00]
  Objective range  [1e+00, 2e+00]
  Bounds range     [1e+00, 1e+00]
  RHS range        [1e+00, 4e+00]
Found heuristic solution: objective 2.0000000
Presolve removed 2 rows and 3 columns
Presolve time: 0.02s
Presolve: All rows and columns removed

Explored 0 nodes (0 simplex iterations) in 0.09 seconds
Thread count was 1 (of 2 available processors)

Solution count 2: 3 2 

Optimal solution found (tolerance 1.00e-04)
Best objective 3.000000000000e+00, best bound 3.000000000000e+00, gap 0.0000%
